ACTORES = {Actor1, Actor2, Actor3};
num_escenas = 5;
num_pares = 0;

% Escenas: cada fila corresponde a un actor
% Las columnas representan participación en las escenas 1..5
% La última columna es el costo por unidad de tiempo

Escenas = [|
    1, 0, 1, 0, 1, 10  % Actor1 participa en escenas 1, 3, 5
  | 1, 1, 0, 0, 1, 5   % Actor2 participa en escenas 1, 2, 5
  | 0, 1, 1, 1, 0, 8   % Actor3 participa en escenas 2, 3, 4
|];

% Duración de cada escena
duracion = [2, 1, 3, 2, 1];

% Disponibilidad de los actores (0 = tiempo ilimitado)
disponibilidad = [0, 0, 0];

% No hay actores a evitar en este ejemplo
evitar_pares = array2d(1..0, 1..2, []);
